Set parameter Username
Academic license - for non-commercial use only - expires 2024-12-10
Set parameter LazyConstraints to value 1
Set parameter TimeLimit to value 600
Gurobi Optimizer version 10.0.0 build v10.0.0rc2 (linux64)

CPU model: Intel(R) Core(TM) i5-4590 CPU @ 3.30GHz, instruction set [SSE2|AVX|AVX2]
Thread count: 4 physical cores, 4 logical processors, using up to 4 threads

Optimize a model with 2583 rows, 625 columns and 2716 nonzeros
Model fingerprint: 0x6d139b6b
Variable types: 0 continuous, 625 integer (625 binary)
Coefficient statistics:
  Matrix range     [1e+00, 1e+00]
  Objective range  [1e+00, 1e+01]
  Bounds range     [1e+00, 1e+00]
  RHS range        [1e+00, 1e+00]
Presolve removed 2530 rows and 26 columns
Presolve time: 0.00s
Presolved: 53 rows, 599 columns, 169 nonzeros
Variable types: 0 continuous, 599 integer (599 binary)

Root relaxation: objective 2.450000e+02, 49 iterations, 0.00 seconds (0.00 work units)

    Nodes    |    Current Node    |     Objective Bounds      |     Work
 Expl Unexpl |  Obj  Depth IntInf | Incumbent    BestBd   Gap | It/Node Time

     0     0  245.00000    0    -          -  245.00000      -     -    1s
     0     0  247.00000    0    -          -  247.00000      -     -    2s
     0     0  247.00000    0    -          -  247.00000      -     -    2s
     0     0  249.00000    0    -          -  249.00000      -     -    2s
     0     0  250.00000    0    -          -  250.00000      -     -    3s
     0     0  251.00000    0    -          -  251.00000      -     -    3s
     0     0  252.00000    0    -          -  252.00000      -     -    3s
     0     0  252.00000    0    -          -  252.00000      -     -    4s
     0     0  253.00000    0    -          -  253.00000      -     -    4s
     0     0  253.00000    0    -          -  253.00000      -     -    4s
     0     0  257.00000    0    -          -  257.00000      -     -    5s
     0     0  259.00000    0    -          -  259.00000      -     -    5s
     0     0  262.00000    0    -          -  262.00000      -     -    5s
     0     0  264.00000    0    -          -  264.00000      -     -    6s
     0     0  264.00000    0    -          -  264.00000      -     -    6s
     0     0  266.00000    0    -          -  266.00000      -     -    7s
     0     0  266.00000    0    -          -  266.00000      -     -    7s
     0     0  267.00000    0    -          -  267.00000      -     -    7s
     0     0  267.00000    0    -          -  267.00000      -     -    8s
     0     0  267.33333    0    4          -  267.33333      -     -    8s
     0     0  391.00000    0    -          -  391.00000      -     -   11s
     0     0  391.00000    0    -          -  391.00000      -     -   11s
     0     0  392.00000    0    -          -  392.00000      -     -   11s
     0     0  392.00000    0    -          -  392.00000      -     -   12s
H    0     0                    1010.0000000  392.50000  61.1%     -   12s
     0     0  392.50000    0    7 1010.00000  392.50000  61.1%     -   12s
     0     0  443.00000    0    - 1010.00000  443.00000  56.1%     -   16s
     0     0  443.00000    0    - 1010.00000  443.00000  56.1%     -   17s
     0     0  444.00000    0    - 1010.00000  444.00000  56.0%     -   17s
     0     0  444.00000    0    - 1010.00000  444.00000  56.0%     -   18s
     0     0  444.00000    0    - 1010.00000  444.00000  56.0%     -   18s
     0     0  444.00000    0    - 1010.00000  444.00000  56.0%     -   18s
H    0     0                     974.0000000  444.00000  54.4%     -   19s
     0     0  444.00000    0    5  974.00000  444.00000  54.4%     -   19s
     0     0  481.00000    0    -  974.00000  481.00000  50.6%     -   23s
     0     0  481.00000    0    -  974.00000  481.00000  50.6%     -   23s
     0     0  481.00000    0    -  974.00000  481.00000  50.6%     -   23s
     0     0  481.00000    0    -  974.00000  481.00000  50.6%     -   24s
H    0     0                     967.0000000  481.00000  50.3%     -   24s
     0     0  481.00000    0    3  967.00000  481.00000  50.3%     -   24s
H    0     0                     956.0000000  481.00000  49.7%     -   25s
     0     0  481.00000    0    3  956.00000  481.00000  49.7%     -   31s
H    0     2                     911.0000000  481.00000  47.2%     -   32s
     0     2  502.50000    0    3  911.00000  502.50000  44.8%     -   32s
H    8     9                     905.0000000  552.50000  39.0%  58.4   34s
H   13    13                     900.0000000  554.50000  38.4%  60.3   36s
    44    53  568.62883    5   21  900.00000  558.66667  37.9%  48.4   43s
    68    81  568.62121    9   21  900.00000  558.66667  37.9%  35.5   47s
H   79    81                     890.0000000  558.66667  37.2%  31.7   50s
H   88   101                     884.0000000  558.66667  36.8%  29.7   52s
   104   116  568.63614   11   19  884.00000  558.66667  36.8%  26.3   55s
H  144   170                     873.0000000  558.66667  36.0%  21.3   62s
H  165   170                     872.0000000  558.66667  35.9%  19.8   67s
   211   243  568.76712   25   16  872.00000  558.66667  35.9%  17.4   74s
H  218   243                     864.0000000  558.66667  35.3%  17.0   75s
   307   345  568.91304   46   14  864.00000  558.66667  35.3%  13.9   89s
H  347   351                     844.0000000  558.66667  33.8%  13.2   97s
   371   406  569.23711   53   17  844.00000  558.66667  33.8%  12.6  101s
   447   489  569.80000   61   11  844.00000  558.66667  33.8%  11.5  116s
   539   551  570.04000   73   15  844.00000  558.66667  33.8%  10.6  131s
   647   651  570.57143   88    8  844.00000  558.66667  33.8%   9.9  150s
   779   759  572.81818   99   12  844.00000  558.66667  33.8%   9.0  170s
   933   947  575.41667  111   12  844.00000  558.66667  33.8%   8.7  195s
  1122   967  577.33333   83    3  844.00000  558.66667  33.8%   8.1  226s
  1125   969  571.91515    5   14  844.00000  567.20513  32.8%   8.0  231s
  1130   972  574.31535   19   38  844.00000  574.31535  32.0%   8.0  235s
  1139   978  587.62471   16   34  844.00000  587.62471  30.4%   7.9  240s
  1149   985  596.80316   69   43  844.00000  596.80316  29.3%   7.9  246s
  1157   995  599.88591   15   47  844.00000  599.49866  29.0%  10.0  250s
H 1168  1000                     833.0000000  599.95309  28.0%  10.9  254s
  1173  1006  602.71690   17   51  833.00000  599.95309  28.0%  11.6  256s
  1185  1014  604.91422   19   61  833.00000  599.95309  28.0%  13.2  260s
  1209  1030  613.26718   22   71  833.00000  599.95309  28.0%  16.7  265s
  1225  1041  619.04267   24   65  833.00000  599.95309  28.0%  19.6  270s
H 1228  1040                     830.0000000  599.95309  27.7%  20.0  271s
H 1238  1046                     821.0000000  599.95309  26.9%  21.7  275s
  1257  1059  617.82783   21   81  821.00000  599.95309  26.9%  24.6  280s
  1281  1075  621.80240   21   71  821.00000  599.95309  26.9%  25.5  285s
  1304  1103  628.38841   37   53  821.00000  599.95309  26.9%  25.8  290s
  1353  1130  628.52223   45   49  821.00000  599.95309  26.9%  26.3  299s
  1361  1164  628.49613   46   49  821.00000  599.95309  26.9%  26.4  300s
  1398  1193  628.61308   52   49  821.00000  599.95309  26.9%  26.4  307s
  1439  1186  628.81754   58   47  821.00000  599.95309  26.9%  26.5  314s
  1446  1226  628.84218   59   45  821.00000  599.95309  26.9%  26.5  316s
  1488  1255  628.98383   67   45  821.00000  599.95309  26.9%  26.6  324s
  1531  1252  629.11352   74   38  821.00000  599.95309  26.9%  26.7  331s
  1559  1269  623.15607   59   62  821.00000  599.95309  26.9%  26.7  337s
  1569  1311  629.25433   82   39  821.00000  599.95309  26.9%  26.6  340s
  1614  1326  629.49143   89   39  821.00000  599.95309  26.9%  26.8  348s
  1644  1377  629.51450   92   37  821.00000  599.95309  26.9%  26.8  354s
  1705  1393  629.98464  102   39  821.00000  599.95309  26.9%  26.9  365s
  1741  1439  630.16936  107   37  821.00000  599.95309  26.9%  27.0  372s
  1799  1478  630.54828  115   37  821.00000  599.95309  26.9%  27.1  384s
  1858  1524  630.40365  126   32  821.00000  599.95309  26.9%  27.1  394s
  1923  1575  630.86128  137   30  821.00000  599.95309  26.9%  27.1  405s
  1996  1618  630.93245  148   28  821.00000  599.95309  26.9%  27.1  418s
  2063  1681  631.11741  157   24  821.00000  599.95309  26.9%  27.1  430s
  2149  1733  631.49620  169   23  821.00000  599.95309  26.9%  27.0  446s
  2229  1797  631.96613  179   23  821.00000  599.95309  26.9%  26.9  460s
  2322  1771  634.69414  195   19  821.00000  599.95309  26.9%  26.7  477s
  2452  1904  635.40476  216   18  821.00000  599.95309  26.9%  26.3  502s
  2499  1898  624.90889  147   37  821.00000  599.95309  26.9%  26.0  512s
  2532  2014  641.00000  239    7  821.00000  599.95309  26.9%  26.0  518s
  2673  1991  628.00000  222    -  821.00000  599.95309  26.9%  25.5  543s
  2740  2098  653.41667  261   12  821.00000  601.12543  26.8%  25.3  556s
  2872  2187  614.87321   17   77  821.00000  601.12543  26.8%  25.3  579s

Cutting planes:
  User: 133
  MIR: 1
  Flow cover: 3
  Lazy constraints: 118

Explored 3013 nodes (75492 simplex iterations) in 602.85 seconds (6.19 work units)
Thread count was 4 (of 4 available processors)

Solution count 10: 821 830 833 ... 900

Time limit reached
Best objective 8.210000000000e+02, best bound 6.020000000000e+02, gap 26.6748%

User-callback calls 8186, time in user-callback 597.76 sec
